Problem:    pesce
Rows:       4
Columns:    3
Non-zeros:  12
Status:     OPTIMAL
Objective:  z = 42.1875 (MAXimum)

   No.   Row name   St   Activity     Lower bound   Upper bound    Marginal
------ ------------ -- ------------- ------------- ------------- -------------
     1 Volume       B        42187.5                       50000 
     2 Time         NU            45                          45        0.9375 
     3 Law          B        0.09375                           1 
     4 z            B        42.1875                             

   No. Column name  St   Activity     Lower bound   Upper bound    Marginal
------ ------------ -- ------------- ------------- ------------- -------------
     1 x[1]         NL             0             0                     -0.3125 
     2 x[2]         B          5.625             0               
     3 x[3]         NL             0             0                    -5.00001 

Karush-Kuhn-Tucker optimality conditions:

KKT.PE: max.abs.err = 7.11e-15 on row 2
        max.rel.err = 7.81e-17 on row 2
        High quality

KKT.PB: max.abs.err = 0.00e+00 on row 0
        max.rel.err = 0.00e+00 on row 0
        High quality

KKT.DE: max.abs.err = 8.88e-16 on column 2
        max.rel.err = 5.55e-17 on column 2
        High quality

KKT.DB: max.abs.err = 0.00e+00 on row 0
        max.rel.err = 0.00e+00 on row 0
        High quality

End of output
